\* myProblem *\
Minimize
OBJ: 0.2 Broccoli + 0.6 CornFlakes + 2.5 Ramen + 0.25 Rice + 0.5 cookie
Subject To
_C1: 25 Broccoli + 300 CornFlakes + 550 Ramen + 450 Rice + 300 cookie <= 2200
_C10: 0.1 Broccoli + 0.1 CornFlakes + 0.9 Ramen + 0.1 Rice + 0.1 cookie >= 3
_C2: 4 Broccoli + 15 CornFlakes + 25 Ramen + 25 Rice + 20 cookie <= 100
_C3: 2 Broccoli + 3 CornFlakes + 8 Ramen + 4 Rice + 5 cookie <= 80
_C4: 0.5 Broccoli + 0.5 CornFlakes + 20 Ramen + 0.5 Rice + 10 cookie <= 100
_C5: 0.1 Broccoli + 0.1 CornFlakes + 0.9 Ramen + 0.1 Rice + 0.1 cookie <= 5
_C6: 25 Broccoli + 300 CornFlakes + 550 Ramen + 450 Rice + 300 cookie >= 1800
_C7: 4 Broccoli + 15 CornFlakes + 25 Ramen + 25 Rice + 20 cookie >= 50
_C8: 2 Broccoli + 3 CornFlakes + 8 Ramen + 4 Rice + 5 cookie >= 30
_C9: 0.5 Broccoli + 0.5 CornFlakes + 20 Ramen + 0.5 Rice + 10 cookie >= 60
End
